number = array2d(1..12,1..3,[
  
  _,5,_,
  _,_,_,
  _,3,_,
  _,_,_,
  _,_,_,
  _,_,_,
  _,_,_,
  _,_,_,
  _,4,_,
  _,3,_,
  _,4,_,
  _,1,_
  
]);

operation = array1d(1..12,[
  2,
  3,
  1,
  2,
  2,
  1,
  1,
  1,
  1,
  1,
  2,
  2
]);



number2 = array2d(1..8,1..4,[
  
  _,_,_,_,
  _,_,_,_,
  _,_,_,_,
  _,8,_,_,
  _,4,_,_,
  _,_,_,_,
  _,_,4,_,
  _,_,3,_
  
]);

operation2 = array1d(1..8,[
  3,
  3,
  1,
  3,
  3,
  1,
  3,
  3
]);